(set-option :produce-models true)
(set-logic QF_UF)
(declare-fun p19() Bool)
(declare-fun p84() Bool)
(declare-fun p90() Bool)
(declare-fun p75() Bool)
(declare-fun p3() Bool)
(declare-fun p79() Bool)
(declare-fun p65() Bool)
(declare-fun p12() Bool)
(declare-fun p48() Bool)
(declare-fun p14() Bool)
(declare-fun p41() Bool)
(declare-fun p99() Bool)
(declare-fun p95() Bool)
(declare-fun p71() Bool)
(declare-fun p83() Bool)
(declare-fun p66() Bool)
(declare-fun p91() Bool)
(declare-fun p40() Bool)
(declare-fun p43() Bool)
(declare-fun p93() Bool)
(declare-fun p15() Bool)
(declare-fun p10() Bool)
(declare-fun p34() Bool)
(declare-fun p17() Bool)
(declare-fun p6() Bool)
(declare-fun p16() Bool)
(declare-fun p70() Bool)
(declare-fun p81() Bool)
(declare-fun p28() Bool)
(declare-fun p2() Bool)
(declare-fun p87() Bool)
(declare-fun p58() Bool)
(declare-fun p80() Bool)
(declare-fun p72() Bool)
(declare-fun p26() Bool)
(declare-fun p8() Bool)
(declare-fun p46() Bool)
(declare-fun p9() Bool)
(declare-fun p69() Bool)
(declare-fun p4() Bool)
(declare-fun p39() Bool)
(declare-fun p50() Bool)
(declare-fun p51() Bool)
(declare-fun p35() Bool)
(declare-fun p94() Bool)
(declare-fun p98() Bool)
(declare-fun p74() Bool)
(declare-fun p29() Bool)
(declare-fun p1() Bool)
(declare-fun p53() Bool)
(declare-fun p68() Bool)
(declare-fun p77() Bool)
(declare-fun p45() Bool)
(declare-fun p44() Bool)
(declare-fun p52() Bool)
(declare-fun p33() Bool)
(declare-fun p73() Bool)
(declare-fun p92() Bool)
(declare-fun p27() Bool)
(declare-fun p36() Bool)
(declare-fun p49() Bool)
(declare-fun p24() Bool)
(declare-fun p54() Bool)
(declare-fun p25() Bool)
(declare-fun p22() Bool)
(declare-fun p47() Bool)
(declare-fun p96() Bool)
(declare-fun p55() Bool)
(declare-fun p38() Bool)
(declare-fun p59() Bool)
(declare-fun p31() Bool)
(declare-fun p30() Bool)
(declare-fun p61() Bool)
(declare-fun p18() Bool)
(declare-fun p23() Bool)
(declare-fun p13() Bool)
(declare-fun p57() Bool)
(declare-fun p7() Bool)
(declare-fun p89() Bool)
(declare-fun p0() Bool)
(declare-fun p76() Bool)
(declare-fun p56() Bool)
(declare-fun p62() Bool)
(declare-fun p88() Bool)
(declare-fun p5() Bool)
(declare-fun p82() Bool)
(declare-fun p32() Bool)
(declare-fun p63() Bool)
(declare-fun p85() Bool)
(declare-fun p78() Bool)
(declare-fun p97() Bool)
(declare-fun p64() Bool)
(declare-fun p42() Bool)
(declare-fun p86() Bool)
(declare-fun p67() Bool)
(declare-fun p20() Bool)
(declare-fun p60() Bool)
(declare-fun p37() Bool)
(declare-fun p11() Bool)
(declare-fun p21() Bool)
(assert
(and (or (not p19) (not p84) p90) (or p75 (not p3) p79) (or p65 p12 p48) (or (not p14) (not p41) (not p99)) (or p95 p71 p83) (or p66 p91 (not p40)) (or p43 p19 p93) (or p15 p10 (not p34)) (or p17 (not p6) (not p16)) (or p70 p70 p81) (or p83 p28 (not p48)) (or (not p2) p87 (not p58)) (or p34 p80 p14) (or p72 (not p72) (not p87)) (or p41 (not p26) (not p8)) (or (not p65) p16 p46) (or (not p9) (not p69) p99) (or (not p4) (not p39) p50) (or p51 (not p69) (not p35)) (or (not p15) p94 p75) (or (not p98) (not p28) (not p50)) (or (not p40) p4 (not p74)) (or p94 p29 (not p84)) (or (not p2) (not p83) (not p1)) (or p53 p19 (not p68)) (or p77 (not p45) (not p40)) (or (not p66) (not p93) (not p94)) (or p81 (not p1) (not p44)) (or (not p75) (not p6) (not p52)) (or (not p33) (not p45) (not p29)) (or p46 p68 (not p8)) (or (not p73) p92 p27) (or p36 (not p49) p41) (or (not p41) p24 p58) (or (not p99) p54 p53) (or (not p73) (not p84) (not p92)) (or (not p91) p72 (not p50)) (or p25 p94 p39) (or (not p22) p33 (not p47)) (or (not p96) (not p55) p72) (or p77 p12 p99) (or p38 p59 p95) (or (not p80) p31 p14) (or (not p79) p71 (not p46)) (or p25 p45 (not p30)) (or p84 (not p72) p26) (or p46 (not p91) p10) (or p25 (not p17) (not p8)) (or (not p26) (not p39) (not p54)) (or p26 (not p65) p31) (or (not p17) p28 p61) (or p15 p14 (not p58)) (or p4 p22 (not p43)) (or (not p59) (not p18) p23) (or p13 (not p57) (not p1)) (or p24 (not p7) p16) (or (not p65) p99 p35) (or p43 p92 (not p45)) (or (not p83) (not p44) p3) (or (not p89) p47 (not p6)) (or p15 (not p0) p25) (or (not p59) p98 p76) (or p7 (not p19) (not p33)) (or (not p94) p40 p6) (or p35 p12 p56) (or p81 (not p29) (not p68)) (or (not p61) p81 p73) (or (not p62) p12 p51) (or p25 p70 (not p49)) (or p80 (not p54) (not p30)) (or (not p15) (not p43) (not p89)) (or (not p18) (not p7) p17) (or (not p12) (not p69) (not p73)) (or p88 (not p10) (not p19)) (or p5 p38 (not p24)) (or (not p82) (not p15) (not p6)) (or (not p94) p18 (not p32)) (or (not p63) p4 (not p15)) (or p6 p40 p79) (or p79 (not p47) (not p80)) (or (not p71) p98 p74) (or p5 p99 p27) (or (not p13) p74 (not p10)) (or (not p8) p13 (not p32)) (or p62 p92 (not p73)) (or p93 (not p55) p38) (or (not p40) (not p85) (not p91)) (or p4 p58 (not p91)) (or p65 p54 p95) (or p69 (not p71) p78) (or (not p97) (not p38) p85) (or p58 (not p68) (not p15)) (or (not p55) p36 (not p35)) (or p94 p64 p7) (or (not p53) (not p69) (not p2)) (or (not p69) p76 p94) (or (not p73) p70 p49) (or p81 (not p29) (not p22)) (or (not p51) (not p42) p14) (or p91 p86 p39) (or (not p54) (not p34) p26) (or (not p0) (not p67) p55) (or p64 p34 p23) (or (not p40) p66 (not p54)) (or (not p68) p78 p29) (or (not p45) p20 (not p95)) (or (not p72) (not p8) p61) (or (not p79) (not p88) (not p62)) (or (not p75) p88 p92) (or (not p66) p88 p51) (or p84 p25 (not p7)) (or (not p17) (not p43) (not p34)) (or p65 p5 (not p44)) (or p33 p60 (not p19)) (or (not p48) p43 (not p14)) (or p91 (not p28) p37) (or (not p49) p1 (not p93)) (or (not p38) (not p74) p41) (or p49 (not p3) (not p11)) (or p67 p35 (not p27)) (or (not p41) (not p88) (not p79)) (or p83 (not p78) (not p13)) (or p24 p65 p16) (or p34 (not p43) p78) (or p6 (not p87) (not p13)) (or (not p56) (not p9) p45) (or (not p54) (not p64) p72) (or p57 (not p15) (not p25)) (or (not p23) (not p73) (not p43)) (or (not p85) p97 (not p99)) (or (not p0) (not p31) p87) (or (not p74) (not p48) (not p21)) (or p14 p80 p90) (or (not p81) (not p80) (not p48)) (or (not p12) (not p18) (not p32)) (or (not p71) (not p83) (not p29)) (or (not p31) p49 p83) (or p0 p12 p56) (or p21 p79 (not p2)) (or p74 p37 p27) (or p99 (not p95) p59) (or p9 (not p48) p8) (or (not p96) p65 (not p46)) (or (not p95) (not p73) (not p85)) (or (not p29) (not p45) (not p88)) (or p70 (not p37) (not p15)) (or (not p75) (not p44) (not p15)) (or p30 (not p45) p98) (or (not p36) p71 p49) (or (not p66) p53 p10) (or p47 (not p35) (not p13)) (or (not p96) (not p16) p36) (or (not p61) (not p6) p23) (or (not p14) (not p14) p86) (or (not p24) (not p46) (not p1)) (or (not p39) p93 (not p64)) (or (not p49) (not p32) (not p86)) (or p35 p35 (not p48)) (or (not p52) p32 (not p66)) (or p3 p50 (not p48)) (or (not p35) p79 p92) (or p87 p63 p73) (or (not p77) (not p45) (not p56)) (or (not p52) p24 p28) (or p92 p88 p61) (or p46 (not p3) (not p36)) (or (not p55) p14 p90) (or (not p62) p3 (not p79)) (or (not p91) (not p25) p41) (or (not p65) p95 p65) (or p62 (not p70) p9) (or p30 (not p29) (not p52)) (or (not p48) (not p23) p55) (or (not p43) p84 p8) (or p66 p12 p12) (or (not p8) (not p81) (not p27)) (or (not p73) p96 p41) (or (not p69) p4 (not p10)) (or (not p1) p55 (not p35)) (or p94 (not p46) p38) (or p16 (not p52) p38) (or p92 (not p95) (not p32)) (or (not p38) (not p46) p1) (or (not p16) p13 p58) (or (not p13) p83 (not p60)) (or p28 p91 p38) (or (not p44) p46 (not p75)) (or (not p79) p88 p71) (or p51 p65 p44) (or (not p23) p35 (not p36)) (or p10 p38 (not p66)) (or (not p30) (not p5) (not p3)) (or p91 p28 p88) (or (not p76) (not p50) (not p29)) (or (not p70) (not p36) (not p9)) (or (not p53) p49 (not p92)) (or p36 p81 (not p47)) (or (not p12) p30 p59) (or (not p37) p6 (not p99)) (or p81 (not p77) p80) (or (not p42) p66 p28) (or p28 (not p48) (not p63)) (or p37 p81 p48) (or p69 (not p38) p74) (or (not p47) (not p47) (not p77)) (or p29 p3 p54) (or p79 (not p60) (not p72)) (or p64 (not p18) p15) (or p47 (not p4) (not p12)) (or p72 p1 (not p62)) (or p29 p17 p49) (or (not p19) p58 p34) (or (not p20) p81 (not p80)) (or p57 (not p23) p3) (or p95 p47 (not p58)) (or (not p54) (not p76) (not p9)) (or (not p5) p48 p65) (or p67 (not p99) (not p65)) (or (not p53) p79 p66) (or (not p39) (not p14) p62) (or p9 p44 (not p94)) (or p94 (not p89) p3) (or p4 p69 (not p86)) (or (not p75) (not p24) p30) (or p41 p42 p28) (or (not p61) p71 (not p62)) (or p7 (not p69) p43) (or (not p81) p99 (not p14)) (or p87 (not p41) p76) (or (not p43) (not p95) (not p14)) (or (not p15) (not p80) (not p7)) (or (not p53) p94 (not p40)) (or p6 p64 (not p83)) (or p74 (not p31) (not p14)) (or p80 p52 (not p42)) (or (not p38) p43 p0) (or (not p27) (not p0) p6) (or (not p63) p27 p81) (or p34 (not p30) p47) (or p72 p4 (not p8)) (or (not p33) (not p56) (not p68)) (or (not p69) (not p31) p48) (or (not p90) p6 p94) (or (not p29) (not p37) (not p65)) (or p81 p53 p79) (or p32 p19 (not p92)) (or (not p45) (not p39) p37) (or p86 (not p47) p29) (or (not p25) p67 (not p0)) (or p30 (not p56) (not p99)) (or (not p3) p19 p38) (or (not p75) p97 (not p23)) (or (not p38) p94 p32) (or p94 (not p21) p74) (or p43 p98 (not p3)) (or p33 p22 (not p21)) (or p39 p95 p96) (or (not p53) p52 p17) (or (not p40) (not p14) p37) (or (not p80) (not p62) (not p77)) (or (not p9) (not p50) (not p4)) (or p82 (not p24) p59) (or p48 p17 p64) (or (not p49) (not p22) p62) (or p5 p92 (not p0)) (or (not p9) p37 (not p9)) (or p33 p43 p88) (or p12 (not p77) (not p87)) (or (not p76) (not p86) (not p68)) (or (not p96) (not p94) p16) (or p47 (not p80) p49) (or p83 p97 (not p71)) (or (not p33) p81 (not p98)) (or (not p3) p54 (not p3)) (or (not p45) p55 p93) (or (not p88) p15 (not p91)) (or p58 p98 (not p91)) (or (not p82) (not p77) p49) (or (not p32) (not p38) (not p74)) (or p97 (not p38) (not p33)) (or (not p41) p86 p98) (or (not p73) p50 p51) (or p50 p4 (not p84)) (or p19 p3 (not p70)) (or p63 p63 (not p42)) (or p12 (not p43) p2) (or p82 p41 (not p45)) (or p88 p75 (not p8)) (or p55 p10 p23) (or (not p40) p53 p18) (or p36 p28 (not p60)) (or (not p46) (not p50) (not p26)) (or (not p9) p65 p28) (or (not p62) p90 (not p11)) (or (not p72) p36 (not p92)) (or p69 (not p25) p96) (or (not p58) p9 (not p59)) (or p87 p1 p93) (or (not p40) (not p82) (not p73)) (or p81 p18 (not p5)) (or (not p19) (not p85) (not p68)) (or (not p65) (not p34) p60) (or (not p3) (not p26) (not p38)) (or p1 p63 (not p1)) (or (not p33) p94 p62) (or p42 (not p71) (not p5)) (or p94 p2 p58) (or (not p4) p72 p61) (or (not p48) (not p70) (not p45)) (or (not p59) p90 (not p8)) (or (not p81) p79 p73) (or (not p90) p91 p95) (or (not p5) p56 p65) (or p48 p64 p22) (or (not p26) p64 (not p95)) (or p63 p51 p63) (or (not p44) (not p67) (not p96)) (or (not p35) (not p15) p78) (or p57 (not p21) (not p44)) (or (not p53) (not p17) p43) (or p39 p19 (not p50)) (or p6 (not p41) (not p77)) (or (not p24) (not p92) (not p78)) (or (not p7) p95 (not p20)) (or p72 (not p45) (not p66)) (or p55 p1 (not p87)) (or (not p4) p82 p64) (or (not p66) (not p54) (not p72)) (or (not p48) p3 p29) (or p54 (not p12) (not p66)) (or p31 p97 (not p45)) (or (not p83) (not p8) p57) (or p16 (not p28) p63) (or p6 p61 (not p30)) (or (not p32) (not p20) (not p5)) (or (not p3) p26 p80) (or (not p35) p7 (not p15)) (or p14 p53 (not p15)) (or p8 p41 (not p49)) (or p32 (not p89) p11) (or (not p47) (not p22) p19) (or (not p6) (not p94) (not p47)) (or (not p82) p74 p58) (or (not p54) p12 p30) (or p34 p46 (not p9)) (or p51 (not p66) p28) (or p46 p97 p91) (or p83 (not p25) (not p71)) (or (not p88) p1 (not p1)) (or p40 p97 (not p2)) (or p20 p82 (not p63)) (or (not p35) (not p82) p5) (or (not p17) p3 (not p68)) (or p59 (not p56) p89) (or (not p52) p80 (not p13)) (or p42 p62 (not p55)) (or p5 p4 p95) (or (not p92) (not p38) (not p38)) (or p11 p62 p84) (or (not p55) p42 (not p64)) (or (not p53) p55 (not p65)) (or p48 p37 p16) (or p52 p44 p88) (or (not p51) (not p85) p72) (or p58 (not p88) p63) (or (not p34) (not p76) p23) (or p76 p20 p76) (or (not p49) p16 p17) (or p25 (not p56) (not p57)) (or p83 (not p92) (not p80)) (or (not p97) (not p54) p38) (or (not p66) p92 (not p99)) (or p14 p18 p46) (or p28 p53 p4) (or p53 p96 p40) (or p80 (not p1) (not p25)) (or (not p14) p19 p29) (or (not p71) p61 p60) (or p7 p57 p20) (or p50 (not p34) (not p94)) (or p71 p42 p99) (or p34 (not p4) p30) (or p48 p25 p67) (or (not p90) (not p98) p16) (or (not p75) (not p1) p25) (or p32 (not p39) p78) (or p88 (not p82) p20) (or (not p33) (not p22) (not p20)) (or (not p61) p80 (not p80)) (or p14 (not p42) p44) (or (not p77) (not p41) p80) (or p29 (not p76) p90) (or p80 p24 (not p56)) (or p24 (not p32) (not p94)) (or (not p56) (not p87) p47) (or p1 (not p67) (not p12)) (or p82 (not p29) (not p22)) (or p58 (not p23) p81) (or p55 p53 (not p53)) (or p93 p83 p96) (or (not p13) p74 (not p85)) (or p10 p17 p53) (or p11 (not p87) (not p98)) (or p21 p55 p87) (or p89 (not p26) (not p19)) (or p93 p67 p27) (or p50 (not p41) (not p12)) (or (not p92) p44 p57) (or p18 (not p47) p10) (or p39 (not p12) (not p39)) (or (not p9) (not p47) p15) (or p42 (not p52) (not p74)) (or (not p82) (not p42) p85) (or (not p59) p18 p6) (or (not p84) (not p70) p72) (or (not p23) (not p83) (not p22)) (or (not p40) p41 p99) (or p51 (not p21) (not p18)) (or (not p92) p56 p76) (or p90 p83 p58))
)
(check-sat)
(get-model)
